70
1 0 9
2 0 24
2 1 4
3 0 8
3 1 38
3 2 40
4 0 27
4 1 15
4 2 27
4 3 39
5 0 39
5 1 33
5 2 28
5 3 38
5 4 22
6 0 6
6 1 30
6 2 35
6 3 31
6 4 14
6 5 9
7 0 35
7 1 4
7 2 12
7 3 36
7 4 11
7 5 5
7 6 37
8 0 7
8 1 27
8 2 9
8 3 7
8 4 26
8 5 28
8 6 27
8 7 14
9 0 36
9 1 10
9 2 2
9 3 29
9 4 20
9 5 8
9 6 3
9 7 18
9 8 36
10 0 17
10 1 39
10 2 2
10 3 20
10 4 7
10 5 14
10 6 15
10 7 6
10 8 36
10 9 9
11 0 13
11 1 40
11 2 39
11 3 8
11 4 37
11 5 2
11 6 13
11 7 15
11 8 31
11 9 13
11 10 9
12 0 26
12 1 26
12 2 9
12 3 17
12 4 27
12 5 35
12 6 20
12 7 3
12 8 20
12 9 34
12 10 36
12 11 5
13 0 17
13 1 27
13 2 28
13 3 5
13 4 7
13 5 33
13 6 9
13 7 29
13 8 35
13 9 18
13 10 9
13 11 11
13 12 21
14 0 22
14 1 4
14 2 9
14 3 14
14 4 9
14 5 31
14 6 11
14 7 32
14 8 30
14 9 40
14 10 20
14 11 2
14 12 37
14 13 15
15 0 4
15 1 27
15 2 21
15 3 12
15 4 34
15 5 26
15 6 7
15 7 31
15 8 6
15 9 21
15 10 9
15 11 21
15 12 4
15 13 38
15 14 29
16 0 6
16 1 14
16 2 24
16 3 39
16 4 4
16 5 17
16 6 10
16 7 32
16 8 25
16 9 27
16 10 22
16 11 12
16 12 9
16 13 21
16 14 26
16 15 29
17 0 39
17 1 3
17 2 35
17 3 24
17 4 2
17 5 15
17 6 7
17 7 25
17 8 40
17 9 23
17 10 26
17 11 24
17 12 35
17 13 31
17 14 30
17 15 20
17 16 8
18 0 27
18 1 3
18 2 26
18 3 2
18 4 40
18 5 8
18 6 9
18 7 12
18 8 9
18 9 26
18 10 2
18 11 20
18 12 19
18 13 30
18 14 36
18 15 31
18 16 11
18 17 33
19 0 7
19 1 2
19 2 25
19 3 37
19 4 13
19 5 12
19 6 26
19 7 15
19 8 28
19 9 24
19 10 24
19 11 28
19 12 25
19 13 14
19 14 14
19 15 15
19 16 22
19 17 31
19 18 7
20 0 2
20 1 3
20 2 25
20 3 30
20 4 28
20 5 38
20 6 27
20 7 25
20 8 2
20 9 9
20 10 23
20 11 24
20 12 12
20 13 12
20 14 38
20 15 30
20 16 36
20 17 32
20 18 34
20 19 33
21 0 34
21 1 40
21 2 40
21 3 31
21 4 34
21 5 17
21 6 28
21 7 5
21 8 14
21 9 7
21 10 25
21 11 23
21 12 4
21 13 30
21 14 21
21 15 14
21 16 39
21 17 16
21 18 22
21 19 26
21 20 8
22 0 20
22 1 10
22 2 29
22 3 34
22 4 12
22 5 29
22 6 12
22 7 30
22 8 6
22 9 29
22 10 36
22 11 3
22 12 2
22 13 10
22 14 38
22 15 29
22 16 3
22 17 8
22 18 25
22 19 37
22 20 35
22 21 3
23 0 12
23 1 25
23 2 27
23 3 26
23 4 20
23 5 39
23 6 14
23 7 20
23 8 28
23 9 25
23 10 39
23 11 9
23 12 11
23 13 18
23 14 32
23 15 12
23 16 19
23 17 24
23 18 39
23 19 23
23 20 3
23 21 28
23 22 21
24 0 33
24 1 15
24 2 32
24 3 24
24 4 11
24 5 20
24 6 31
24 7 35
24 8 17
24 9 4
24 10 25
24 11 21
24 12 2
24 13 10
24 14 4
24 15 17
24 16 2
24 17 26
24 18 6
24 19 13
24 20 13
24 21 36
24 22 6
24 23 37
25 0 11
25 1 5
25 2 22
25 3 29
25 4 12
25 5 10
25 6 23
25 7 14
25 8 13
25 9 4
25 10 12
25 11 7
25 12 20
25 13 21
25 14 40
25 15 20
25 16 20
25 17 21
25 18 19
25 19 11
25 20 35
25 21 13
25 22 12
25 23 7
25 24 29
26 0 11
26 1 21
26 2 35
26 3 12
26 4 24
26 5 29
26 6 21
26 7 22
26 8 2
26 9 13
26 10 30
26 11 26
26 12 3
26 13 17
26 14 36
26 15 40
26 16 4
26 17 32
26 18 2
26 19 9
26 20 33
26 21 28
26 22 14
26 23 6
26 24 5
26 25 22
27 0 18
27 1 37
27 2 13
27 3 30
27 4 7
27 5 21
27 6 12
27 7 11
27 8 30
27 9 21
27 10 26
27 11 14
27 12 7
27 13 37
27 14 4
27 15 5
27 16 20
27 17 36
27 18 5
27 19 22
27 20 9
27 21 21
27 22 15
27 23 34
27 24 1
27 25 12
27 26 40
28 0 29
28 1 15
28 2 5
28 3 23
28 4 35
28 5 9
28 6 15
28 7 36
28 8 22
28 9 6
28 10 25
28 11 24
28 12 6
28 13 2
28 14 28
28 15 1
28 16 7
28 17 20
28 18 35
28 19 10
28 20 40
28 21 27
28 22 24
28 23 4
28 24 18
28 25 4
28 26 23
28 27 11
29 0 26
29 1 11
29 2 24
29 3 13
29 4 11
29 5 4
29 6 21
29 7 31
29 8 33
29 9 23
29 10 19
29 11 34
29 12 11
29 13 7
29 14 6
29 15 16
29 16 40
29 17 38
29 18 15
29 19 12
29 20 5
29 21 8
29 22 6
29 23 37
29 24 31
29 25 14
29 26 1
29 27 38
29 28 18
30 0 7
30 1 20
30 2 19
30 3 31
30 4 31
30 5 35
30 6 32
30 7 25
30 8 29
30 9 23
30 10 5
30 11 30
30 12 20
30 13 3
30 14 11
30 15 28
30 16 34
30 17 25
30 18 18
30 19 11
30 20 37
30 21 31
30 22 39
30 23 17
30 24 13
30 25 15
30 26 2
30 27 21
30 28 8
30 29 3
31 0 2
31 1 19
31 2 10
31 3 1
31 4 8
31 5 29
31 6 12
31 7 7
31 8 17
31 9 27
31 10 15
31 11 11
31 12 24
31 13 25
31 14 4
31 15 16
31 16 32
31 17 18
31 18 17
31 19 32
31 20 1
31 21 27
31 22 35
31 23 14
31 24 22
31 25 13
31 26 13
31 27 32
31 28 6
31 29 11
31 30 22
32 0 30
32 1 11
32 2 21
32 3 13
32 4 33
32 5 17
32 6 25
32 7 24
32 8 30
32 9 11
32 10 26
32 11 6
32 12 1
32 13 37
32 14 29
32 15 31
32 16 28
32 17 28
32 18 27
32 19 38
32 20 10
32 21 10
32 22 38
32 23 10
32 24 16
32 25 30
32 26 31
32 27 9
32 28 34
32 29 27
32 30 29
32 31 26
33 0 34
33 1 12
33 2 20
33 3 31
33 4 10
33 5 39
33 6 38
33 7 26
33 8 18
33 9 28
33 10 33
33 11 13
33 12 10
33 13 28
33 14 12
33 15 15
33 16 33
33 17 2
33 18 25
33 19 17
33 20 1
33 21 9
33 22 15
33 23 10
33 24 35
33 25 25
33 26 39
33 27 36
33 28 37
33 29 40
33 30 32
33 31 30
33 32 29
34 0 27
34 1 29
34 2 22
34 3 39
34 4 28
34 5 1
34 6 28
34 7 25
34 8 19
34 9 3
34 10 22
34 11 6
34 12 26
34 13 7
34 14 14
34 15 36
34 16 34
34 17 17
34 18 40
34 19 12
34 20 4
34 21 23
34 22 39
34 23 36
34 24 26
34 25 7
34 26 40
34 27 36
34 28 26
34 29 17
34 30 11
34 31 32
34 32 36
34 33 30
35 0 10
35 1 24
35 2 24
35 3 34
35 4 18
35 5 26
35 6 38
35 7 25
35 8 37
35 9 11
35 10 27
35 11 17
35 12 36
35 13 4
35 14 10
35 15 25
35 16 3
35 17 1
35 18 12
35 19 3
35 20 22
35 21 18
35 22 3
35 23 8
35 24 15
35 25 37
35 26 18
35 27 1
35 28 1
35 29 11
35 30 30
35 31 33
35 32 16
35 33 15
35 34 3
36 0 25
36 1 12
36 2 21
36 3 7
36 4 24
36 5 9
36 6 8
36 7 2
36 8 4
36 9 7
36 10 6
36 11 26
36 12 37
36 13 20
36 14 26
36 15 27
36 16 37
36 17 14
36 18 3
36 19 34
36 20 7
36 21 1
36 22 39
36 23 27
36 24 13
36 25 10
36 26 35
36 27 13
36 28 29
36 29 19
36 30 32
36 31 38
36 32 20
36 33 13
36 34 29
36 35 5
37 0 33
37 1 40
37 2 9
37 3 23
37 4 31
37 5 14
37 6 3
37 7 35
37 8 32
37 9 31
37 10 28
37 11 24
37 12 20
37 13 4
37 14 19
37 15 38
37 16 9
37 17 14
37 18 21
37 19 9
37 20 40
37 21 35
37 22 13
37 23 9
37 24 13
37 25 7
37 26 14
37 27 30
37 28 7
37 29 25
37 30 26
37 31 32
37 32 13
37 33 31
37 34 39
37 35 31
37 36 11
38 0 35
38 1 31
38 2 13
38 3 6
38 4 1
38 5 17
38 6 9
38 7 40
38 8 39
38 9 9
38 10 19
38 11 40
38 12 11
38 13 10
38 14 30
38 15 7
38 16 25
38 17 6
38 18 29
38 19 9
38 20 20
38 21 40
38 22 31
38 23 24
38 24 16
38 25 15
38 26 15
38 27 3
38 28 7
38 29 3
38 30 40
38 31 12
38 32 21
38 33 33
38 34 7
38 35 40
38 36 15
38 37 22
39 0 24
39 1 10
39 2 37
39 3 14
39 4 31
39 5 19
39 6 18
39 7 27
39 8 33
39 9 11
39 10 7
39 11 13
39 12 34
39 13 19
39 14 37
39 15 4
39 16 11
39 17 21
39 18 1
39 19 15
39 20 18
39 21 27
39 22 6
39 23 32
39 24 22
39 25 4
39 26 27
39 27 39
39 28 18
39 29 4
39 30 40
39 31 34
39 32 30
39 33 9
39 34 25
39 35 4
39 36 24
39 37 20
39 38 13
40 0 30
40 1 4
40 2 23
40 3 13
40 4 34
40 5 29
40 6 9
40 7 22
40 8 32
40 9 26
40 10 14
40 11 14
40 12 2
40 13 2
40 14 38
40 15 39
40 16 31
40 17 40
40 18 6
40 19 15
40 20 36
40 21 10
40 22 25
40 23 9
40 24 33
40 25 37
40 26 30
40 27 34
40 28 20
40 29 16
40 30 20
40 31 16
40 32 26
40 33 19
40 34 35
40 35 8
40 36 17
40 37 18
40 38 13
40 39 13
41 0 33
41 1 23
41 2 23
41 3 30
41 4 18
41 5 37
41 6 22
41 7 25
41 8 23
41 9 3
41 10 30
41 11 22
41 12 32
41 13 35
41 14 31
41 15 34
41 16 14
41 17 30
41 18 10
41 19 17
41 20 40
41 21 10
41 22 5
41 23 13
41 24 11
41 25 9
41 26 6
41 27 10
41 28 9
41 29 22
41 30 2
41 31 4
41 32 7
41 33 4
41 34 24
41 35 14
41 36 36
41 37 25
41 38 33
41 39 29
41 40 15
42 0 6
42 1 29
42 2 2
42 3 4
42 4 39
42 5 21
42 6 5
42 7 15
42 8 12
42 9 10
42 10 21
42 11 10
42 12 8
42 13 38
42 14 2
42 15 1
42 16 6
42 17 10
42 18 25
42 19 14
42 20 36
42 21 28
42 22 34
42 23 25
42 24 37
42 25 12
42 26 7
42 27 28
42 28 28
42 29 7
42 30 34
42 31 27
42 32 2
42 33 2
42 34 1
42 35 5
42 36 30
42 37 8
42 38 1
42 39 21
42 40 16
42 41 6
43 0 30
43 1 25
43 2 13
43 3 2
43 4 1
43 5 15
43 6 32
43 7 18
43 8 6
43 9 28
43 10 40
43 11 10
43 12 32
43 13 21
43 14 18
43 15 29
43 16 8
43 17 31
43 18 33
43 19 1
43 20 25
43 21 37
43 22 20
43 23 22
43 24 32
43 25 27
43 26 2
43 27 6
43 28 13
43 29 31
43 30 24
43 31 33
43 32 13
43 33 39
43 34 38
43 35 27
43 36 12
43 37 25
43 38 23
43 39 10
43 40 23
43 41 17
43 42 5
44 0 4
44 1 25
44 2 18
44 3 40
44 4 30
44 5 26
44 6 12
44 7 39
44 8 8
44 9 33
44 10 5
44 11 6
44 12 22
44 13 13
44 14 30
44 15 23
44 16 16
44 17 34
44 18 6
44 19 20
44 20 11
44 21 10
44 22 9
44 23 29
44 24 40
44 25 31
44 26 19
44 27 34
44 28 38
44 29 28
44 30 30
44 31 17
44 32 25
44 33 23
44 34 29
44 35 38
44 36 28
44 37 3
44 38 14
44 39 22
44 40 30
44 41 26
44 42 22
44 43 27
45 0 17
45 1 3
45 2 6
45 3 40
45 4 15
45 5 22
45 6 10
45 7 32
45 8 13
45 9 17
45 10 1
45 11 34
45 12 25
45 13 8
45 14 27
45 15 8
45 16 11
45 17 22
45 18 23
45 19 5
45 20 36
45 21 23
45 22 9
45 23 34
45 24 2
45 25 23
45 26 23
45 27 24
45 28 24
45 29 33
45 30 16
45 31 2
45 32 19
45 33 14
45 34 10
45 35 6
45 36 17
45 37 27
45 38 5
45 39 18
45 40 11
45 41 34
45 42 19
45 43 9
45 44 15
46 0 20
46 1 29
46 2 22
46 3 5
46 4 19
46 5 1
46 6 27
46 7 11
46 8 20
46 9 40
46 10 27
46 11 2
46 12 33
46 13 37
46 14 35
46 15 5
46 16 28
46 17 17
46 18 27
46 19 13
46 20 17
46 21 19
46 22 6
46 23 25
46 24 39
46 25 27
46 26 38
46 27 20
46 28 31
46 29 28
46 30 23
46 31 35
46 32 32
46 33 23
46 34 10
46 35 4
46 36 16
46 37 13
46 38 38
46 39 6
46 40 10
46 41 33
46 42 36
46 43 17
46 44 15
46 45 7
47 0 3
47 1 33
47 2 21
47 3 23
47 4 18
47 5 31
47 6 25
47 7 5
47 8 23
47 9 13
47 10 32
47 11 22
47 12 13
47 13 7
47 14 31
47 15 23
47 16 24
47 17 8
47 18 28
47 19 5
47 20 15
47 21 13
47 22 37
47 23 10
47 24 11
47 25 22
47 26 37
47 27 1
47 28 25
47 29 37
47 30 29
47 31 25
47 32 40
47 33 3
47 34 19
47 35 28
47 36 3
47 37 14
47 38 24
47 39 37
47 40 25
47 41 34
47 42 11
47 43 25
47 44 14
47 45 36
47 46 3
48 0 12
48 1 8
48 2 25
48 3 13
48 4 3
48 5 29
48 6 39
48 7 19
48 8 34
48 9 28
48 10 29
48 11 38
48 12 40
48 13 36
48 14 5
48 15 21
48 16 34
48 17 27
48 18 26
48 19 36
48 20 8
48 21 2
48 22 3
48 23 13
48 24 29
48 25 10
48 26 7
48 27 20
48 28 29
48 29 29
48 30 13
48 31 21
48 32 6
48 33 20
48 34 7
48 35 22
48 36 17
48 37 2
48 38 38
48 39 18
48 40 8
48 41 7
48 42 40
48 43 14
48 44 36
48 45 26
48 46 40
48 47 26
49 0 10
49 1 18
49 2 20
49 3 19
49 4 27
49 5 37
49 6 38
49 7 18
49 8 5
49 9 14
49 10 20
49 11 24
49 12 12
49 13 11
49 14 35
49 15 35
49 16 4
49 17 8
49 18 12
49 19 3
49 20 9
49 21 11
49 22 23
49 23 18
49 24 36
49 25 23
49 26 9
49 27 30
49 28 16
49 29 40
49 30 21
49 31 19
49 32 29
49 33 10
49 34 11
49 35 13
49 36 19
49 37 20
49 38 30
49 39 12
49 40 7
49 41 36
49 42 2
49 43 39
49 44 2
49 45 39
49 46 14
49 47 35
49 48 16
50 0 22
50 1 24
50 2 28
50 3 7
50 4 21
50 5 10
50 6 13
50 7 33
50 8 40
50 9 22
50 10 23
50 11 6
50 12 17
50 13 21
50 14 38
50 15 13
50 16 31
50 17 4
50 18 5
50 19 24
50 20 32
50 21 25
50 22 3
50 23 2
50 24 3
50 25 22
50 26 19
50 27 24
50 28 9
50 29 24
50 30 18
50 31 14
50 32 24
50 33 15
50 34 15
50 35 13
50 36 16
50 37 3
50 38 18
50 39 32
50 40 32
50 41 1
50 42 13
50 43 25
50 44 31
50 45 3
50 46 30
50 47 1
50 48 18
50 49 9
51 0 17
51 1 3
51 2 19
51 3 32
51 4 1
51 5 23
51 6 21
51 7 2
51 8 19
51 9 6
51 10 38
51 11 9
51 12 34
51 13 37
51 14 12
51 15 17
51 16 18
51 17 29
51 18 1
51 19 21
51 20 30
51 21 7
51 22 34
51 23 12
51 24 22
51 25 27
51 26 22
51 27 14
51 28 21
51 29 7
51 30 32
51 31 23
51 32 26
51 33 33
51 34 29
51 35 7
51 36 25
51 37 2
51 38 15
51 39 18
51 40 1
51 41 5
51 42 31
51 43 5
51 44 33
51 45 13
51 46 29
51 47 20
51 48 29
51 49 2
51 50 11
52 0 3
52 1 39
52 2 22
52 3 26
52 4 9
52 5 6
52 6 8
52 7 3
52 8 10
52 9 36
52 10 12
52 11 20
52 12 20
52 13 11
52 14 8
52 15 26
52 16 1
52 17 26
52 18 32
52 19 20
52 20 11
52 21 4
52 22 32
52 23 8
52 24 11
52 25 32
52 26 32
52 27 8
52 28 8
52 29 28
52 30 10
52 31 38
52 32 37
52 33 31
52 34 16
52 35 19
52 36 25
52 37 18
52 38 33
52 39 21
52 40 37
52 41 32
52 42 31
52 43 22
52 44 17
52 45 4
52 46 29
52 47 11
52 48 23
52 49 18
52 50 34
52 51 25
53 0 9
53 1 29
53 2 2
53 3 27
53 4 12
53 5 36
53 6 9
53 7 17
53 8 18
53 9 27
53 10 11
53 11 35
53 12 24
53 13 37
53 14 29
53 15 20
53 16 31
53 17 16
53 18 21
53 19 8
53 20 25
53 21 19
53 22 13
53 23 16
53 24 18
53 25 9
53 26 26
53 27 29
53 28 32
53 29 39
53 30 24
53 31 19
53 32 35
53 33 1
53 34 38
53 35 34
53 36 5
53 37 12
53 38 27
53 39 27
53 40 8
53 41 37
53 42 27
53 43 3
53 44 25
53 45 17
53 46 30
53 47 3
53 48 9
53 49 28
53 50 15
53 51 26
53 52 8
54 0 30
54 1 34
54 2 7
54 3 3
54 4 14
54 5 28
54 6 18
54 7 38
54 8 2
54 9 19
54 10 39
54 11 14
54 12 23
54 13 14
54 14 28
54 15 30
54 16 10
54 17 9
54 18 38
54 19 6
54 20 34
54 21 10
54 22 36
54 23 6
54 24 27
54 25 20
54 26 30
54 27 13
54 28 38
54 29 40
54 30 32
54 31 35
54 32 3
54 33 1
54 34 31
54 35 31
54 36 37
54 37 29
54 38 13
54 39 12
54 40 18
54 41 23
54 42 15
54 43 38
54 44 14
54 45 27
54 46 26
54 47 30
54 48 10
54 49 23
54 50 4
54 51 11
54 52 7
54 53 29
55 0 11
55 1 28
55 2 24
55 3 22
55 4 21
55 5 39
55 6 35
55 7 20
55 8 5
55 9 31
55 10 33
55 11 36
55 12 2
55 13 32
55 14 8
55 15 10
55 16 33
55 17 29
55 18 4
55 19 14
55 20 17
55 21 33
55 22 1
55 23 21
55 24 33
55 25 40
55 26 11
55 27 23
55 28 40
55 29 25
55 30 1
55 31 17
55 32 31
55 33 28
55 34 35
55 35 25
55 36 35
55 37 11
55 38 17
55 39 35
55 40 34
55 41 29
55 42 13
55 43 26
55 44 39
55 45 25
55 46 19
55 47 12
55 48 6
55 49 15
55 50 7
55 51 9
55 52 20
55 53 26
55 54 4
56 0 12
56 1 1
56 2 16
56 3 33
56 4 3
56 5 29
56 6 36
56 7 5
56 8 38
56 9 32
56 10 9
56 11 3
56 12 11
56 13 5
56 14 4
56 15 35
56 16 33
56 17 2
56 18 32
56 19 3
56 20 5
56 21 29
56 22 32
56 23 9
56 24 35
56 25 17
56 26 16
56 27 15
56 28 11
56 29 31
56 30 9
56 31 40
56 32 35
56 33 5
56 34 15
56 35 7
56 36 16
56 37 27
56 38 4
56 39 40
56 40 27
56 41 29
56 42 25
56 43 29
56 44 21
56 45 16
56 46 33
56 47 4
56 48 14
56 49 32
56 50 40
56 51 35
56 52 25
56 53 39
56 54 19
56 55 9
57 0 31
57 1 33
57 2 22
57 3 37
57 4 35
57 5 16
57 6 6
57 7 12
57 8 10
57 9 40
57 10 28
57 11 19
57 12 7
57 13 31
57 14 9
57 15 1
57 16 26
57 17 2
57 18 8
57 19 22
57 20 21
57 21 36
57 22 40
57 23 27
57 24 15
57 25 14
57 26 38
57 27 1
57 28 19
57 29 37
57 30 6
57 31 33
57 32 5
57 33 31
57 34 32
57 35 34
57 36 14
57 37 25
57 38 21
57 39 35
57 40 11
57 41 32
57 42 40
57 43 36
57 44 34
57 45 22
57 46 36
57 47 28
57 48 2
57 49 26
57 50 32
57 51 27
57 52 8
57 53 37
57 54 37
57 55 1
57 56 20
58 0 14
58 1 22
58 2 17
58 3 26
58 4 21
58 5 10
58 6 36
58 7 4
58 8 2
58 9 3
58 10 3
58 11 27
58 12 39
58 13 24
58 14 39
58 15 7
58 16 6
58 17 23
58 18 35
58 19 17
58 20 16
58 21 1
58 22 28
58 23 38
58 24 30
58 25 22
58 26 26
58 27 38
58 28 10
58 29 16
58 30 24
58 31 23
58 32 35
58 33 22
58 34 30
58 35 23
58 36 23
58 37 34
58 38 11
58 39 23
58 40 37
58 41 35
58 42 25
58 43 3
58 44 16
58 45 14
58 46 20
58 47 12
58 48 7
58 49 34
58 50 6
58 51 3
58 52 25
58 53 19
58 54 5
58 55 37
58 56 11
58 57 19
59 0 29
59 1 10
59 2 4
59 3 12
59 4 39
59 5 16
59 6 26
59 7 14
59 8 25
59 9 25
59 10 38
59 11 9
59 12 24
59 13 31
59 14 17
59 15 36
59 16 28
59 17 27
59 18 17
59 19 8
59 20 3
59 21 33
59 22 31
59 23 11
59 24 2
59 25 33
59 26 27
59 27 28
59 28 24
59 29 31
59 30 33
59 31 7
59 32 35
59 33 14
59 34 13
59 35 11
59 36 4
59 37 12
59 38 11
59 39 19
59 40 33
59 41 34
59 42 30
59 43 28
59 44 28
59 45 36
59 46 16
59 47 31
59 48 39
59 49 10
59 50 13
59 51 28
59 52 8
59 53 9
59 54 28
59 55 29
59 56 19
59 57 7
59 58 12
60 0 18
60 1 16
60 2 1
60 3 40
60 4 18
60 5 6
60 6 35
60 7 24
60 8 16
60 9 15
60 10 38
60 11 9
60 12 17
60 13 11
60 14 26
60 15 15
60 16 3
60 17 27
60 18 33
60 19 26
60 20 26
60 21 22
60 22 31
60 23 10
60 24 5
60 25 20
60 26 7
60 27 30
60 28 16
60 29 10
60 30 33
60 31 27
60 32 13
60 33 29
60 34 32
60 35 17
60 36 38
60 37 26
60 38 24
60 39 26
60 40 34
60 41 35
60 42 33
60 43 6
60 44 6
60 45 16
60 46 17
60 47 30
60 48 19
60 49 2
60 50 30
60 51 9
60 52 35
60 53 12
60 54 5
60 55 17
60 56 8
60 57 31
60 58 38
60 59 37
61 0 10
61 1 6
61 2 10
61 3 19
61 4 22
61 5 28
61 6 13
61 7 1
61 8 36
61 9 30
61 10 36
61 11 10
61 12 19
61 13 17
61 14 1
61 15 38
61 16 35
61 17 5
61 18 6
61 19 21
61 20 34
61 21 36
61 22 34
61 23 15
61 24 27
61 25 38
61 26 29
61 27 10
61 28 25
61 29 7
61 30 13
61 31 23
61 32 33
61 33 3
61 34 16
61 35 11
61 36 23
61 37 28
61 38 23
61 39 1
61 40 26
61 41 10
61 42 27
61 43 19
61 44 24
61 45 34
61 46 34
61 47 37
61 48 25
61 49 5
61 50 6
61 51 3
61 52 32
61 53 4
61 54 35
61 55 36
61 56 31
61 57 8
61 58 9
61 59 22
61 60 36
62 0 17
62 1 3
62 2 21
62 3 34
62 4 10
62 5 14
62 6 18
62 7 28
62 8 13
62 9 2
62 10 11
62 11 19
62 12 24
62 13 30
62 14 33
62 15 21
62 16 1
62 17 17
62 18 1
62 19 36
62 20 38
62 21 28
62 22 33
62 23 1
62 24 14
62 25 38
62 26 8
62 27 1
62 28 38
62 29 6
62 30 23
62 31 36
62 32 37
62 33 25
62 34 14
62 35 33
62 36 13
62 37 39
62 38 17
62 39 31
62 40 29
62 41 13
62 42 11
62 43 2
62 44 38
62 45 29
62 46 19
62 47 12
62 48 5
62 49 19
62 50 37
62 51 18
62 52 8
62 53 25
62 54 13
62 55 6
62 56 20
62 57 2
62 58 19
62 59 8
62 60 16
62 61 19
63 0 14
63 1 18
63 2 36
63 3 33
63 4 14
63 5 32
63 6 24
63 7 22
63 8 36
63 9 34
63 10 25
63 11 32
63 12 17
63 13 11
63 14 12
63 15 19
63 16 10
63 17 12
63 18 30
63 19 34
63 20 5
63 21 30
63 22 24
63 23 5
63 24 17
63 25 15
63 26 19
63 27 33
63 28 33
63 29 18
63 30 9
63 31 18
63 32 27
63 33 6
63 34 23
63 35 20
63 36 34
63 37 37
63 38 5
63 39 19
63 40 37
63 41 35
63 42 23
63 43 8
63 44 4
63 45 33
63 46 32
63 47 37
63 48 39
63 49 38
63 50 3
63 51 10
63 52 12
63 53 33
63 54 11
63 55 8
63 56 16
63 57 40
63 58 28
63 59 4
63 60 18
63 61 5
63 62 30
64 0 5
64 1 12
64 2 37
64 3 14
64 4 6
64 5 11
64 6 8
64 7 34
64 8 36
64 9 2
64 10 9
64 11 3
64 12 17
64 13 36
64 14 34
64 15 31
64 16 26
64 17 19
64 18 14
64 19 39
64 20 37
64 21 9
64 22 31
64 23 35
64 24 19
64 25 5
64 26 7
64 27 1
64 28 26
64 29 33
64 30 15
64 31 4
64 32 1
64 33 9
64 34 27
64 35 37
64 36 23
64 37 16
64 38 1
64 39 33
64 40 13
64 41 22
64 42 19
64 43 27
64 44 2
64 45 28
64 46 25
64 47 36
64 48 24
64 49 33
64 50 35
64 51 10
64 52 6
64 53 5
64 54 20
64 55 27
64 56 35
64 57 11
64 58 23
64 59 1
64 60 34
64 61 34
64 62 30
64 63 12
65 0 32
65 1 27
65 2 39
65 3 19
65 4 25
65 5 16
65 6 39
65 7 15
65 8 16
65 9 20
65 10 3
65 11 9
65 12 3
65 13 35
65 14 8
65 15 15
65 16 23
65 17 19
65 18 38
65 19 28
65 20 7
65 21 28
65 22 14
65 23 29
65 24 4
65 25 16
65 26 1
65 27 4
65 28 9
65 29 36
65 30 38
65 31 22
65 32 39
65 33 14
65 34 28
65 35 29
65 36 28
65 37 2
65 38 14
65 39 6
65 40 16
65 41 39
65 42 34
65 43 39
65 44 21
65 45 18
65 46 2
65 47 5
65 48 6
65 49 17
65 50 23
65 51 16
65 52 22
65 53 13
65 54 31
65 55 4
65 56 19
65 57 7
65 58 4
65 59 26
65 60 9
65 61 7
65 62 17
65 63 10
65 64 20
66 0 22
66 1 29
66 2 13
66 3 21
66 4 35
66 5 35
66 6 15
66 7 2
66 8 10
66 9 33
66 10 29
66 11 8
66 12 10
66 13 31
66 14 35
66 15 4
66 16 13
66 17 5
66 18 29
66 19 2
66 20 10
66 21 39
66 22 39
66 23 19
66 24 18
66 25 36
66 26 7
66 27 33
66 28 27
66 29 1
66 30 9
66 31 16
66 32 15
66 33 21
66 34 28
66 35 31
66 36 14
66 37 15
66 38 40
66 39 2
66 40 33
66 41 33
66 42 1
66 43 6
66 44 1
66 45 27
66 46 13
66 47 6
66 48 30
66 49 35
66 50 22
66 51 9
66 52 28
66 53 22
66 54 34
66 55 20
66 56 19
66 57 25
66 58 21
66 59 7
66 60 17
66 61 28
66 62 36
66 63 21
66 64 32
66 65 34
67 0 20
67 1 31
67 2 40
67 3 18
67 4 32
67 5 34
67 6 31
67 7 3
67 8 13
67 9 21
67 10 28
67 11 19
67 12 16
67 13 26
67 14 7
67 15 29
67 16 20
67 17 39
67 18 1
67 19 8
67 20 25
67 21 16
67 22 4
67 23 9
67 24 1
67 25 12
67 26 29
67 27 5
67 28 16
67 29 6
67 30 39
67 31 17
67 32 21
67 33 40
67 34 23
67 35 1
67 36 25
67 37 6
67 38 28
67 39 38
67 40 1
67 41 6
67 42 15
67 43 39
67 44 10
67 45 8
67 46 13
67 47 34
67 48 36
67 49 15
67 50 36
67 51 12
67 52 32
67 53 9
67 54 32
67 55 4
67 56 21
67 57 27
67 58 6
67 59 15
67 60 31
67 61 24
67 62 7
67 63 21
67 64 1
67 65 38
67 66 8
68 0 4
68 1 16
68 2 29
68 3 40
68 4 22
68 5 33
68 6 5
68 7 25
68 8 27
68 9 21
68 10 12
68 11 8
68 12 13
68 13 8
68 14 8
68 15 19
68 16 27
68 17 25
68 18 33
68 19 37
68 20 29
68 21 31
68 22 1
68 23 30
68 24 21
68 25 2
68 26 39
68 27 5
68 28 27
68 29 33
68 30 26
68 31 22
68 32 17
68 33 20
68 34 40
68 35 2
68 36 15
68 37 27
68 38 23
68 39 24
68 40 17
68 41 20
68 42 2
68 43 10
68 44 33
68 45 35
68 46 27
68 47 19
68 48 4
68 49 10
68 50 24
68 51 35
68 52 14
68 53 13
68 54 32
68 55 12
68 56 16
68 57 20
68 58 30
68 59 5
68 60 15
68 61 18
68 62 15
68 63 1
68 64 3
68 65 28
68 66 27
68 67 11
69 0 1
69 1 6
69 2 11
69 3 8
69 4 5
69 5 9
69 6 29
69 7 25
69 8 10
69 9 30
69 10 39
69 11 19
69 12 4
69 13 38
69 14 40
69 15 6
69 16 24
69 17 36
69 18 38
69 19 14
69 20 6
69 21 30
69 22 19
69 23 6
69 24 25
69 25 11
69 26 9
69 27 31
69 28 5
69 29 17
69 30 17
69 31 13
69 32 34
69 33 14
69 34 12
69 35 6
69 36 16
69 37 26
69 38 21
69 39 8
69 40 15
69 41 4
69 42 5
69 43 35
69 44 21
69 45 5
69 46 14
69 47 26
69 48 6
69 49 17
69 50 24
69 51 16
69 52 38
69 53 36
69 54 16
69 55 1
69 56 26
69 57 29
69 58 37
69 59 4
69 60 15
69 61 38
69 62 23
69 63 13
69 64 22
69 65 13
69 66 26
69 67 12
69 68 5
